Route #1: 171 85 173 126 49 140 104 33 119 8 73 14
Route #2: 24 4 177 64 117 132 34 165 120 123 143 166 152
Route #3: 65 50 92 44 138 21 147 55 48 179 70 63 148 158
Route #4: 47 125 137 169 146 76 46 57 62 56 167 141 127
Route #5: 153 130 131 10 6 133 160 25 109 105 23 32 31
Route #6: 72 121 18 116 103 163 144 1 90 7 185 15 37 59 88
Route #7: 101 100 114 142 156 79 113 178 174 96 40 22
Route #8: 52 115 118 36 61 157 17 80 110 149 3 161
Route #9: 39 29 150 106 81 75 78 134 83 51 136 87 164
Route #10: 124 42 86 53 181 170 108 43 41 38 111 67
Route #11: 154 5 162 168 145 95 91 45 128 74 12 129
Route #12: 175 82 97 102 139 122 151 98 89 27 84 99
Route #13: 60 26 107 69 159 77 9 183 182 93 30 2 28
Route #14: 184 71 135 66 20 112 54 94 11 180 35 19 16
Route #15: 172 68 155 58 176 13
Cost 24145
